p tw 64 108
5 6
5 20
2 9
2 5
2 63
4 16
4 19
4 61
4 18
4 7
4 8
4 10
10 18
10 17
10 20
42 55
42 49
42 63
24 31
24 28
24 36
24 33
37 38
25 31
25 37
52 59
14 62
14 17
46 57
46 61
46 48
46 51
57 58
29 37
29 61
29 35
29 32
61 64
61 63
61 62
1 6
6 16
6 18
21 63
21 36
33 37
28 34
28 30
28 62
9 12
9 11
13 15
41 45
41 57
41 49
41 56
45 46
32 39
34 37
22 64
22 26
22 36
44 60
44 48
44 49
44 62
27 30
27 34
27 39
27 28
54 57
54 60
49 52
49 58
7 20
7 9
7 8
7 19
39 40
3 8
63 64
50 57
50 55
50 64
16 64
11 20
43 50
43 47
26 39
26 34
55 60
55 57
23 35
23 34
23 40
8 9
8 12
36 38
30 40
51 59
51 53
51 54
47 59
47 56
15 17
15 19
62 64
62 63
